\ This file has been generated by DOcplex
\ ENCODING=ISO-8859-1
\Problem name: AMC Linear Optimization for 3ADMM-H

Minimize
 obj: x_0 + x_1 + x_2 + x_3 + x_4 + y_0 + y_1 + y_2 + y_3 + y_4 + u_0 + u_1
      + u_2
Subject To
 Constraint: 59 x_0 + 70 x_1 + 82 x_3 + 118 y_0 + 52 u_0 + 22 u_1 = 639
 Constraint#1: 2 x_0 + 78 x_4 + 8 y_1 + 45 y_4 + 25 u_1 + 20 u_2 = 460

Bounds
 0 <= x_0 <= 1
 0 <= x_1 <= 1
 0 <= x_2 <= 1
 0 <= x_3 <= 1
 0 <= x_4 <= 1
 0 <= y_0 <= 1
 0 <= y_1 <= 1
 0 <= y_2 <= 1
 0 <= y_3 <= 1
 0 <= y_4 <= 1

Binaries
 x_0 x_1 x_2 x_3 x_4 y_0 y_1 y_2 y_3 y_4
End
